p cnf 27 26
-1 7 17 27 0 
-2 5 27 0 
-3 27 0 
-4 11 16 27 0 
-5 2 27 0 
-6 27 0 
-7 1 17 -4 11 16 27 0 
-8 -9 -7 1 17 27 0 
-8 -10 -3 27 0 
-11 4 16 27 0 
-12 -3 27 0 
-13 -11 4 16 27 0 
-6 -3 27 0 
-14 -15 19 -16 4 11 27 0 
-17 1 7 27 0 
-15 19 -7 1 17 27 0 
-18 -3 -19 15 27 0 
-20 -3 27 0 
-21 -22 -4 11 16 27 0 
-23 24 27 0 
-7 1 17 27 0 
-24 23 27 0 
-16 4 11 27 0 
-6 -4 11 16 27 0 
-25 26 27 0 
-26 25 27 0 
